#----------------------------------------------------------------------------------------------#
#----------------------------------------"SET UP DATA"-----------------------------------------#
#----------------------------------------------------------------------------------------------#
data;

#state and control matrices
param A: 1 2 3 4 5 6 :=
1        0 0 0 0 0 0
2        0 0 0 0 0 0
3        0 0 0 0 0 0
4        0 0 0 0 0 0
5        0 0 0 0 0 0
6        0 0 0 0 0 0
;
param B: 1 2 :=
1 0 0
2 0 0
3 0 0
4 0 0
5 0 0
6 0 0
;
param Yeq :=
1 0
2 0
3 0
4 0
5 0
6 0
;
param Ueq :=
1 0
2 0
;
param Ylb :=
1 0
2 0
3 0
4 0
5 0
6 0
;
param Ulb :=
1 0
2 0
;
param Yub :=
1 0
2 0
3 0
4 0
5 0
6 0
;
param Uub :=
1 0
2 0
;
param Y0 :=
1 0
2 0
3 0
4 0
5 0
6 0
;
param U0 :=
1 0
2 0
;
param UbarH := 0;
param barH := 0;
param hatGamma := 0;
param hatMu := 0;

param xBar := 0;
param yBar := 0;
param rBar := 0;
param xTilde := 0;
param yTilde := 0;
param rTilde := 0;

#----------------------------------------------------------------------------------------------#
#----------------------------------------"SET UP DATA"-----------------------------------------#
#----------------------------------------------------------------------------------------------#

